10062.0
1 1 1 1 1 1 1 1 1 1 
3 20 21 22 24 25 38 40 53 54 55 66 
12 43 58 60 85 90 
17 59 82 83 84 88 91 92 93 94 95 96 97 98 99 
0 2 8 19 32 33 34 49 50 64 65 70 77 78 80 
11 23 27 28 67 75 76 79 
6 7 18 35 44 45 46 47 48 51 81 
1 39 52 57 71 72 73 74 86 
9 10 26 29 30 31 61 62 63 69 87 89 
68 
4 5 13 14 15 16 36 37 41 42 56 
